B2 N2                                   
   1.00000000000000     
     0.0000000000000000    2.4904487070212893    0.0000000000000000
    -2.1567923578499015   -1.2452243535106446    0.0000000000000000
     0.0000000000000000    0.0000000000000000    6.4463916958009859
   B    N 
     2     2
Direct
  0.3333330000000032  0.6666669999999968  0.2500000000000000
  0.6666669999999968  0.3333330000000032  0.7500000000000000
  0.6666669999999968  0.3333330000000032  0.2500000000000000
  0.3333330000000032  0.6666669999999968  0.7500000000000000
 
  0.00000000E+00  0.00000000E+00  0.00000000E+00
  0.00000000E+00  0.00000000E+00  0.00000000E+00
  0.00000000E+00  0.00000000E+00  0.00000000E+00
  0.00000000E+00  0.00000000E+00  0.00000000E+00
