generated by phonopy
   1.0
     0.0000000000000000    9.9617948280851571    0.0000000000000000
    -8.6271694313996061   -4.9808974140425786    0.0000000000000000
     0.0000000000000000    0.0000000000000000    6.4463916958009859
B N
  32   32
Direct
  0.0833332500000008  0.1666667499999992  0.2500000000000000
  0.3333332500000008  0.1666667499999992  0.2500000000000000
  0.5833332500000008  0.1666667499999992  0.2500000000000000
  0.8333332500000008  0.1666667499999992  0.2500000000000000
  0.0833332500000008  0.4166667499999992  0.2500000000000000
  0.3333332500000008  0.4166667499999992  0.2500000000000000
  0.5833332500000008  0.4166667499999992  0.2500000000000000
  0.8333332500000008  0.4166667499999992  0.2500000000000000
  0.0833332500000008  0.6666667499999992  0.2500000000000000
  0.3333332500000008  0.6666667499999992  0.2500000000000000
  0.5833332500000008  0.6666667499999992  0.2500000000000000
  0.8333332500000008  0.6666667499999992  0.2500000000000000
  0.0833332500000008  0.9166667499999992  0.2500000000000000
  0.3333332500000008  0.9166667499999992  0.2500000000000000
  0.5833332500000008  0.9166667499999992  0.2500000000000000
  0.8333332500000008  0.9166667499999992  0.2500000000000000
  0.1666667499999992  0.0833332500000008  0.7500000000000000
  0.4166667499999992  0.0833332500000008  0.7500000000000000
  0.6666667499999992  0.0833332500000008  0.7500000000000000
  0.9166667499999992  0.0833332500000008  0.7500000000000000
  0.1666667499999992  0.3333332500000008  0.7500000000000000
  0.4166667499999992  0.3333332500000008  0.7500000000000000
  0.6666667499999992  0.3333332500000008  0.7500000000000000
  0.9166667499999992  0.3333332500000008  0.7500000000000000
  0.1666667499999992  0.5833332500000008  0.7500000000000000
  0.4166667499999992  0.5833332500000008  0.7500000000000000
  0.6666667499999992  0.5833332500000008  0.7500000000000000
  0.9166667499999992  0.5833332500000008  0.7500000000000000
  0.1666667499999992  0.8333332500000008  0.7500000000000000
  0.4166667499999992  0.8333332500000008  0.7500000000000000
  0.6666667499999992  0.8333332500000008  0.7500000000000000
  0.9166667499999992  0.8333332500000008  0.7500000000000000
  0.1666667499999992  0.0833332500000008  0.2500000000000000
  0.4166667499999992  0.0833332500000008  0.2500000000000000
  0.6666667499999992  0.0833332500000008  0.2500000000000000
  0.9166667499999992  0.0833332500000008  0.2500000000000000
  0.1666667499999992  0.3333332500000008  0.2500000000000000
  0.4166667499999992  0.3333332500000008  0.2500000000000000
  0.6666667499999992  0.3333332500000008  0.2500000000000000
  0.9166667499999992  0.3333332500000008  0.2500000000000000
  0.1666667499999992  0.5833332500000008  0.2500000000000000
  0.4166667499999992  0.5833332500000008  0.2500000000000000
  0.6666667499999992  0.5833332500000008  0.2500000000000000
  0.9166667499999992  0.5833332500000008  0.2500000000000000
  0.1666667499999992  0.8333332500000008  0.2500000000000000
  0.4166667499999992  0.8333332500000008  0.2500000000000000
  0.6666667499999992  0.8333332500000008  0.2500000000000000
  0.9166667499999992  0.8333332500000008  0.2500000000000000
  0.0833332500000008  0.1666667499999992  0.7500000000000000
  0.3333332500000008  0.1666667499999992  0.7500000000000000
  0.5833332500000008  0.1666667499999992  0.7500000000000000
  0.8333332500000008  0.1666667499999992  0.7500000000000000
  0.0833332500000008  0.4166667499999992  0.7500000000000000
  0.3333332500000008  0.4166667499999992  0.7500000000000000
  0.5833332500000008  0.4166667499999992  0.7500000000000000
  0.8333332500000008  0.4166667499999992  0.7500000000000000
  0.0833332500000008  0.6666667499999992  0.7500000000000000
  0.3333332500000008  0.6666667499999992  0.7500000000000000
  0.5833332500000008  0.6666667499999992  0.7500000000000000
  0.8333332500000008  0.6666667499999992  0.7500000000000000
  0.0833332500000008  0.9166667499999992  0.7500000000000000
  0.3333332500000008  0.9166667499999992  0.7500000000000000
  0.5833332500000008  0.9166667499999992  0.7500000000000000
  0.8333332500000008  0.9166667499999992  0.7500000000000000
